; PUSH 0x00 DUP3 EQ ISZERO ISZERO => DUP2 ISZERO
(set-option :produce-proofs true)
; 
(set-info :status unknown)
(declare-fun storage_t ((_ BitVec 256) (_ BitVec 256) Int (_ BitVec 256)) (_ BitVec 256))
(declare-fun storage_s ((_ BitVec 256) (_ BitVec 256) Int (_ BitVec 256)) (_ BitVec 256))
(declare-fun exc_halt_t (Int) Bool)
(declare-fun exc_halt_s (Int) Bool)
(declare-fun stack_t ((_ BitVec 256) (_ BitVec 256) Int (_ BitVec 6)) (_ BitVec 256))
(declare-fun stack_s ((_ BitVec 256) (_ BitVec 256) Int (_ BitVec 6)) (_ BitVec 256))
(declare-fun sc_t (Int) (_ BitVec 6))
(declare-fun sc_s (Int) (_ BitVec 6))
(declare-fun used_gas_t ((_ BitVec 256) (_ BitVec 256) Int) Int)
(declare-fun used_gas_s ((_ BitVec 256) (_ BitVec 256) Int) Int)
(assert
 (exists ((x_0 (_ BitVec 256)) (x_1 (_ BitVec 256)) )(let (($x10532 (forall ((w (_ BitVec 256)) )(let ((?x6745 (storage_t x_0 x_1 2 w)))
 (let ((?x4041 (storage_s x_0 x_1 5 w)))
 (= ?x4041 ?x6745))))
 ))
 (let (($x5252 (exc_halt_t 2)))
 (let (($x3979 (exc_halt_s 5)))
 (let (($x7034 (= $x3979 $x5252)))
 (let (($x11820 (forall ((n (_ BitVec 6)) )(let ((?x7468 (stack_t x_0 x_1 2 n)))
 (let ((?x7166 (stack_s x_0 x_1 5 n)))
 (let (($x7690 (= ?x7166 ?x7468)))
 (or (bvsle (sc_t 2) n) $x7690)))))
 ))
 (let ((?x2714 (sc_t 2)))
 (let ((?x805 (sc_s 5)))
 (let (($x3759 (= ?x805 ?x2714)))
 (let ((?x11347 (used_gas_t x_0 x_1 0)))
 (let ((?x11289 (used_gas_s x_0 x_1 0)))
 (let (($x6430 (= ?x11289 ?x11347)))
 (let (($x1319 (forall ((w (_ BitVec 256)) )(let ((?x4458 (storage_t x_0 x_1 0 w)))
 (let ((?x11583 (storage_s x_0 x_1 0 w)))
 (= ?x11583 ?x4458))))
 ))
 (let (($x56 (exc_halt_t 0)))
 (let (($x57 (exc_halt_s 0)))
 (let (($x58 (= $x57 $x56)))
 (let (($x2476 (forall ((n (_ BitVec 6)) )(let ((?x63 (sc_t 0)))
 (let (($x6321 (bvsle ?x63 n)))
 (let ((?x5077 (stack_t x_0 x_1 0 n)))
 (let ((?x5117 (stack_s x_0 x_1 0 n)))
 (let (($x3304 (= ?x5117 ?x5077)))
 (or $x3304 $x6321)))))))
 ))
 (let ((?x63 (sc_t 0)))
 (let ((?x72 (sc_s 0)))
 (let (($x73 (= ?x72 ?x63)))
 (let (($x253 (= $x5252 (or (exc_halt_t 1) (not (bvsle (_ bv0 6) (bvadd (_ bv63 6) (sc_t 1))))))))
 (let (($x3544 (forall ((w (_ BitVec 256)) )(let ((?x6793 (storage_t x_0 x_1 1 w)))
 (let ((?x6745 (storage_t x_0 x_1 2 w)))
 (= ?x6745 ?x6793))))
 ))
 (let (($x9427 (forall ((n (_ BitVec 6)) )(or (bvsle (bvadd (_ bv63 6) (sc_t 1)) n) (= (stack_t x_0 x_1 2 n) (stack_t x_0 x_1 1 n))))
 ))
 (let ((?x10950 (sc_t 1)))
 (let (($x6705 (= ?x2714 ?x10950)))
 (let (($x7829 (= (used_gas_t x_0 x_1 2) (+ 3 (used_gas_t x_0 x_1 1)))))
 (let (($x6768 (= (stack_t x_0 x_1 2 (bvadd (_ bv63 6) ?x2714)) (ite (= (stack_t x_0 x_1 1 (bvadd (_ bv63 6) ?x10950)) (_ bv0 256)) (_ bv1 256) (_ bv0 256)))))
 (let (($x6182 (not (= ((_ extract 6 6) (bvadd (_ bv1 7) (concat (_ bv0 1) ?x63))) (_ bv0 1)))))
 (let (($x8096 (exc_halt_t 1)))
 (let (($x10299 (= $x8096 (or $x56 $x6182 (not (bvsle (_ bv0 6) (bvadd (_ bv62 6) ?x63)))))))
 (let (($x5743 (forall ((w (_ BitVec 256)) )(let ((?x4458 (storage_t x_0 x_1 0 w)))
 (let ((?x6793 (storage_t x_0 x_1 1 w)))
 (= ?x6793 ?x4458))))
 ))
 (let (($x10390 (forall ((n (_ BitVec 6)) )(let ((?x63 (sc_t 0)))
 (let ((?x3719 (bvadd (_ bv62 6) ?x63)))
 (let (($x6419 (bvsle ?x3719 n)))
 (or $x6419 (= (stack_t x_0 x_1 1 n) (stack_t x_0 x_1 0 n)))))))
 ))
 (let (($x6864 (= ?x10950 (bvadd (_ bv1 6) ?x63))))
 (let (($x5784 (= (stack_t x_0 x_1 1 (bvadd (_ bv63 6) ?x63)) (stack_t x_0 x_1 0 (bvadd (_ bv63 6) ?x63)))))
 (let ((?x3719 (bvadd (_ bv62 6) ?x63)))
 (let ((?x2426 (stack_t x_0 x_1 0 ?x3719)))
 (let (($x11130 (= $x3979 (or (exc_halt_s 4) (not (bvsle (_ bv0 6) (bvadd (_ bv63 6) (sc_s 4))))))))
 (let (($x11626 (forall ((w (_ BitVec 256)) )(let ((?x4203 (storage_s x_0 x_1 4 w)))
 (let ((?x4041 (storage_s x_0 x_1 5 w)))
 (= ?x4041 ?x4203))))
 ))
 (let (($x11835 (forall ((n (_ BitVec 6)) )(let ((?x4305 (sc_s 4)))
 (let ((?x7007 (bvadd (_ bv63 6) ?x4305)))
 (let (($x11838 (bvsle ?x7007 n)))
 (or (= (stack_s x_0 x_1 5 n) (stack_s x_0 x_1 4 n)) $x11838)))))
 ))
 (let (($x11684 (= (used_gas_s x_0 x_1 5) (+ 3 (used_gas_s x_0 x_1 4)))))
 (let ((?x3452 (ite (= (stack_s x_0 x_1 4 (bvadd (_ bv63 6) (sc_s 4))) (_ bv0 256)) (_ bv1 256) (_ bv0 256))))
 (let (($x7172 (exc_halt_s 4)))
 (let (($x2399 (= $x7172 (or (exc_halt_s 3) (not (bvsle (_ bv0 6) (bvadd (_ bv63 6) (sc_s 3))))))))
 (let (($x10020 (forall ((w (_ BitVec 256)) )(let ((?x4318 (storage_s x_0 x_1 3 w)))
 (let ((?x4203 (storage_s x_0 x_1 4 w)))
 (= ?x4203 ?x4318))))
 ))
 (let (($x8149 (forall ((n (_ BitVec 6)) )(let ((?x275 (sc_s 3)))
 (let ((?x10342 (bvadd (_ bv63 6) ?x275)))
 (let (($x7041 (bvsle ?x10342 n)))
 (or (= (stack_s x_0 x_1 4 n) (stack_s x_0 x_1 3 n)) $x7041)))))
 ))
 (let ((?x275 (sc_s 3)))
 (let ((?x4305 (sc_s 4)))
 (let (($x4364 (= ?x4305 ?x275)))
 (let ((?x4045 (used_gas_s x_0 x_1 4)))
 (let ((?x7007 (bvadd (_ bv63 6) ?x4305)))
 (let ((?x3302 (stack_s x_0 x_1 4 ?x7007)))
 (let (($x8090 (= ?x3302 (ite (= (stack_s x_0 x_1 3 (bvadd (_ bv63 6) ?x275)) (_ bv0 256)) (_ bv1 256) (_ bv0 256)))))
 (let (($x292 (exc_halt_s 3)))
 (let (($x9976 (= $x292 (or (exc_halt_s 2) (not (bvsle (_ bv0 6) (bvadd (_ bv62 6) (sc_s 2))))))))
 (let (($x9843 (forall ((w (_ BitVec 256)) )(let ((?x11554 (storage_s x_0 x_1 2 w)))
 (let ((?x4318 (storage_s x_0 x_1 3 w)))
 (= ?x4318 ?x11554))))
 ))
 (let (($x9047 (forall ((n (_ BitVec 6)) )(or (bvsle (bvadd (_ bv62 6) (sc_s 2)) n) (= (stack_s x_0 x_1 3 n) (stack_s x_0 x_1 2 n))))
 ))
 (let ((?x11794 (used_gas_s x_0 x_1 3)))
 (let ((?x218 (sc_s 2)))
 (let ((?x8251 (bvadd (_ bv63 6) ?x218)))
 (let ((?x11346 (stack_s x_0 x_1 2 ?x8251)))
 (let ((?x10342 (bvadd (_ bv63 6) ?x275)))
 (let ((?x11202 (stack_s x_0 x_1 3 ?x10342)))
 (let (($x11208 (= ?x11202 (ite (= ?x11346 (stack_s x_0 x_1 2 (bvadd (_ bv62 6) ?x218))) (_ bv1 256) (_ bv0 256)))))
 (let (($x189 (exc_halt_s 1)))
 (let (($x2238 (or $x189 (not (= ((_ extract 6 6) (bvadd (_ bv1 7) (concat (_ bv0 1) (sc_s 1)))) (_ bv0 1))) (not (bvsle (_ bv0 6) (bvadd (_ bv61 6) (sc_s 1)))))))
 (let (($x247 (exc_halt_s 2)))
 (let (($x8146 (forall ((w (_ BitVec 256)) )(let ((?x5853 (storage_s x_0 x_1 1 w)))
 (let ((?x11554 (storage_s x_0 x_1 2 w)))
 (= ?x11554 ?x5853))))
 ))
 (let (($x8962 (forall ((n (_ BitVec 6)) )(or (bvsle (bvadd (_ bv61 6) (sc_s 1)) n) (= (stack_s x_0 x_1 2 n) (stack_s x_0 x_1 1 n))))
 ))
 (let ((?x11172 (used_gas_s x_0 x_1 2)))
 (let (($x4752 (= (stack_s x_0 x_1 2 (bvadd (_ bv63 6) (sc_s 1))) (stack_s x_0 x_1 1 (bvadd (_ bv63 6) (sc_s 1))))))
 (let (($x6876 (= (stack_s x_0 x_1 2 (bvadd (_ bv62 6) (sc_s 1))) (stack_s x_0 x_1 1 (bvadd (_ bv62 6) (sc_s 1))))))
 (let ((?x154 (sc_s 1)))
 (let ((?x11350 (bvadd (_ bv61 6) ?x154)))
 (let ((?x8215 (stack_s x_0 x_1 1 ?x11350)))
 (let (($x788 (= $x189 (or $x57 (not (= ((_ extract 6 6) (bvadd (_ bv1 7) (concat (_ bv0 1) ?x72))) (_ bv0 1)))))))
 (let (($x5508 (forall ((w (_ BitVec 256)) )(let ((?x11583 (storage_s x_0 x_1 0 w)))
 (let ((?x5853 (storage_s x_0 x_1 1 w)))
 (= ?x5853 ?x11583))))
 ))
 (let (($x10205 (forall ((n (_ BitVec 6)) )(let ((?x72 (sc_s 0)))
 (let (($x720 (bvsle ?x72 n)))
 (or $x720 (= (stack_s x_0 x_1 1 n) (stack_s x_0 x_1 0 n))))))
 ))
 (let (($x481 (= ?x154 (bvadd (_ bv1 6) ?x72))))
 (let (($x11539 (forall ((w (_ BitVec 256)) )(let ((?x11583 (storage_s x_0 x_1 0 w)))
 (= ?x11583 (_ bv0 256))))
 ))
 (let (($x11455 (= ?x11289 0)))
 (let (($x1438 (not $x57)))
 (let (($x5498 (= (stack_s x_0 x_1 0 (_ bv1 6)) x_1)))
 (let (($x1806 (= (stack_s x_0 x_1 0 (_ bv0 6)) x_0)))
 (let (($x4356 (= ?x72 (_ bv2 6))))
 (and $x4356 $x1806 $x5498 $x1438 $x11455 $x11539 (= (stack_s x_0 x_1 1 ?x72) (_ bv0 256)) (= (used_gas_s x_0 x_1 1) (+ 3 ?x11289)) $x481 $x10205 $x5508 $x788 (= ?x11346 ?x8215) (= (stack_s x_0 x_1 2 ?x11350) ?x8215) $x6876 $x4752 (= ?x11172 (+ 3 (used_gas_s x_0 x_1 1))) (= ?x218 (bvadd (_ bv1 6) ?x154)) $x8962 $x8146 (= $x247 $x2238) $x11208 (= ?x11794 (+ 3 ?x11172)) (= ?x275 ?x8251) $x9047 $x9843 $x9976 $x8090 (= ?x4045 (+ 3 ?x11794)) $x4364 $x8149 $x10020 $x2399 (= (stack_s x_0 x_1 5 (bvadd (_ bv63 6) ?x805)) ?x3452) $x11684 (= ?x805 ?x4305) $x11835 $x11626 $x11130 (= (stack_t x_0 x_1 1 (bvadd (_ bv63 6) ?x10950)) ?x2426) (= (stack_t x_0 x_1 1 ?x3719) ?x2426) $x5784 (= (used_gas_t x_0 x_1 1) (+ 3 ?x11347)) $x6864 $x10390 $x5743 $x10299 $x6768 $x7829 $x6705 $x9427 $x3544 $x253 $x73 $x2476 $x58 $x1319 $x6430 (not (and $x3759 $x11820 $x7034 $x10532)))))))))))))))))))))))))))))))))))))))))))))))))))))))))))))))))))))))))))))))))))))))
 )
(check-sat)
(get-proof)
